5 5
7 5 4 7 2 5 3 19 1 13 5 12 4 3 12 1 3 2 19 4 20 3 1 6 3 3 5 13 3 2 13 4 6 5 16 1 5 6 2 4 8 1 4 1 4 14
7 5 1 17 3 19 2 18 4 6 5 12 4 3 9 4 18 5 14 2 6 2 1 6 5 17 2 5 17 3 7 2 2 17 4 18 2 5 2 4 2 4 4 5 1 19 5 2 3 18
5 3 5 7 1 3 2 6 2 5 3 1 6 1 3 11 4 5 15 1 16 4 15 3 10 2 4 18 1 18
4 5 1 12 5 4 3 8 4 14 2 2 5 3 19 1 4 2 10 5 7 4 16 4 1 4 4 19 5 13 2 12 5 4 19 3 15 2 16 1 15 5 5
7 4 4 16 5 8 2 5 3 4 5 5 3 4 20 1 18 2 13 3 18 1 2 7 4 4 10 1 18 5 16 2 7 4 1 19 4 15 3 2 2 5 4 1 12 5 5 4 16 3 16 3 5 4 1 4 4 18